Problem:    kcov
Rows:       7
Columns:    20 (20 integer, 20 binary)
Non-zeros:  43
Status:     INTEGER OPTIMAL
Objective:  asbest = 4 (MINimum)

   No.   Row name        Activity     Lower bound   Upper bound
------ ------------    ------------- ------------- -------------
     1 asbest                      4                             
     2 const1[1]                   1             1               
     3 const1[2]                   1             1               
     4 const1[3]                   1             1               
     5 const1[4]                   1             1               
     6 const1[5]                   1             1               
     7 const1[6]                   1             1               

   No. Column name       Activity     Lower bound   Upper bound
------ ------------    ------------- ------------- -------------
     1 tiles[1]     *              1             0             1 
     2 tiles[2]     *              0             0             1 
     3 tiles[3]     *              1             0             1 
     4 tiles[4]     *              0             0             1 
     5 tiles[5]     *              0             0             1 
     6 tiles[6]     *              0             0             1 
     7 tiles[7]     *              0             0             1 
     8 tiles[8]     *              0             0             1 
     9 tiles[9]     *              0             0             1 
    10 tiles[10]    *              0             0             1 
    11 tiles[11]    *              1             0             1 
    12 tiles[12]    *              0             0             1 
    13 tiles[13]    *              0             0             1 
    14 tiles[14]    *              0             0             1 
    15 tiles[15]    *              0             0             1 
    16 tiles[16]    *              0             0             1 
    17 tiles[17]    *              0             0             1 
    18 tiles[18]    *              1             0             1 
    19 tiles[19]    *              0             0             1 
    20 tiles[20]    *              0             0             1 

Integer feasibility conditions:

KKT.PE: max.abs.err = 0.00e+00 on row 0
        max.rel.err = 0.00e+00 on row 0
        High quality

KKT.PB: max.abs.err = 0.00e+00 on row 0
        max.rel.err = 0.00e+00 on row 0
        High quality

End of output
